language Essence 1.3

letting class be function(1 --> 2, 2 --> 2, 3 --> 1, 4 --> 1, 5 --> 1, 6 --> 1)
letting deck_length be 38
letting deck_width be 74
letting length be function(1 --> 5, 2 --> 22, 3 --> 15, 4 --> 1, 5 --> 1, 6 --> 1)
letting n_classes be 2
letting n_containers be 6
letting separation be function()
letting width be function(1 --> 20, 2 --> 11, 3 --> 10, 4 --> 1, 5 --> 11, 6 --> 2)
